unsat
(:max-memory                   18.19
 :memory                       17.94
 :nlsat-conflicts              12
 :nlsat-decisions              5
 :nlsat-irrational-assignments 1
 :nlsat-learned-added          11
 :nlsat-propagations           52
 :nlsat-stages                 10
 :num-allocs                   14877
 :rlimit-count                 31676
 :time                         0.02
 :total-time                   0.03)
